c ---- [ banner ] ------------------------------------------------------------
c
c KISSAT SAT Solver
c Copyright (c) 2019-2020 Armin Biere JKU Linz
c 
c Version 1.0.3 4e7163f7aafe27d04ca267859ebac16564204a0f
c gcc (Ubuntu 9.4.0-1ubuntu1~20.04.1) 9.4.0 -g -W -Wall -O3 -DNEMBEDDED -DNDEBUG -DHEURISTIC_PREF -DNMETRICS -DNSTATISTICS
c Thu Apr 13 13:23:04 IST 2023 Linux Karthikeya 5.15.0-69-generic x86_64
c
c ---- [ parsing ] -----------------------------------------------------------
c
c opened and reading DIMACS file:
c 
c   ../../../benchmark_instances_2022/00a62eb89afbf27e1addf8f5c437da9b-ortholatin-7.cnf
c 
c parsed 'p cnf 6076 101038' header
c closing input after reading 1497812 bytes (1 MB)
c finished parsing after 0.01 seconds
c
c ---- [ solving ] -----------------------------------------------------------
c
c  seconds reductions redundant irredundant
c         MB   restarts    trail      variables
c          level  conflicts   glue         remaining
c
c *  0.05 13 0  0  0   0   0 0% 0 101038 6076 100%
c {  0.05 13 0  0  0   0   0 0% 0 101038 6076 100%
c -  0.05 14 58  1  0 300 291 26% 3 101038 6076 100%
c -  0.06 14 51  2  0 901 855 30% 4 101038 6076 100%
c }  0.06 14 53  2  0 1000 954 31% 4 101038 6076 100%
c [  0.06 14 0  2  0 1000 954 0% 0 101038 6076 100%
c O  0.07 14 158  2  0 1002 955 49% 1 101038 6076 100%
c ]  0.08 14 111  2  0 1676 1618 43% 4 101038 6076 100%
c {  0.08 14 53  2  0 1676 1618 31% 4 101038 6076 100%
c -  0.08 14 58  3  5 1802 1584 31% 4 101038 6076 100%
c f  0.16 15 56  3 70 2500 10200 35% 4 101038 6076 100%
c u  0.18 15 56  3 70 2500 9372 35% 4 101038 6076 100%
c v  0.18 15 56  3 70 2500 9249 35% 4 101038 6076 100%
c d  0.18 15 56  3 70 2500 8961 35% 4 101038 5932 98%
c -  0.23 16 76  4 280 3002 2691 41% 10 101038 5932 98%
c I  0.23 16 76  4 281 3003 2691 41% 10 101038 5932 98%
c }  0.25 16 77  4 326 3676 3326 42% 8 101038 5932 98%
c [  0.25 16 111  4 326 3676 3326 43% 4 101038 5932 98%
c -  0.27 16 99  5 326 4502 2659 60% 5 101038 5932 98%
c B  0.32 16 276  5 328 6009 4116 68% 7 101038 5932 98%
c
c  seconds   reductions   redundant  irredundant
c         MB     restarts        trail      variables
c           level    conflicts      glue         remaining
c
c -  0.34 16 251  6 328 6302 3617 65% 7 101038 5932 98%
c ]  0.35 16 235  6 328 6500 3801 63% 7 101038 5932 98%
c {  0.35 16 77  6 328 6500 3801 42% 8 101038 5932 98%
c d  0.39 17 84  6 349 7501 4779 52% 8 101038 5930 98%
c f  0.45 17 84  6 349 7501 11166 52% 8 101038 5930 98%
c u  0.48 17 84  6 349 7501 9869 52% 8 101038 5930 98%
c v  0.48 17 84  6 349 7501 9562 52% 8 101038 5930 98%
c d  0.49 17 84  6 349 7501 9360 52% 8 101038 5829 96%
c -  0.58 19 92  7 721 8402 3574 53% 10 101038 5829 96%
c W  0.65 20 100  7 764 10011 5133 57% 9 101038 5829 96%
c -  0.69 20 99  8 796 10802 4781 60% 9 101038 5829 96%
c }  0.72 21 99  8 819 11500 5471 61% 9 101038 5829 96%
c [  0.72 21 235  8 819 11500 5471 63% 7 101038 5829 96%
c s  0.79 21 180  8 819 12501 6438 64% 8 100791 5829 96%
c e  0.89 22 180  8 819 12501 6438 64% 8 92732 3528 58%
c -  0.93 22 169  9 820 13503 1443 64% 7 92705 3528 58%
c 3  0.97 20 149  9 821 15002 2820 68% 9 92678 3528 58%
c f  1.00 21 149  9 821 15002 17276 68% 9 92678 3528 58%
c u  1.01 21 149  9 821 15002 16534 68% 9 92678 3528 58%
c v  1.02 21 149  9 821 15002 16183 68% 9 92678 3528 58%
c
c  seconds   reductions     redundant  irredundant
c         MB     restarts          trail     variables
c           level     conflicts       glue        remaining
c
c w  1.03 21 149  9 821 15002 16183 68% 9 92592 3528 58%
c O  1.04 21 149  9 821 15012 16193 68% 9 92592 3528 58%
c -  1.09 21 138 10 822 16503 6382 71% 11 92576 3528 58%
c ]  1.15 21 132 10 823 17878 7682 72% 12 92559 3528 58%
c {  1.15 21 99 10 823 17878 7682 61% 9 92559 3528 58%
c -  1.21 21 104 11 869 19803 5889 63% 8 92533 3528 58%
c B  1.25 21 103 11 935 21015 7028 64% 8 92517 3528 58%
c 3  1.27 20 103 11 956 21402 7405 65% 8 92514 3528 58%
c f  1.31 21 103 11 956 21402 18469 65% 8 92514 3528 58%
c u  1.34 21 103 11 956 21402 16938 65% 8 92514 3528 58%
c v  1.34 21 103 11 956 21402 16499 65% 8 92514 3528 58%
c w  1.36 21 103 11 956 21402 16499 65% 8 92438 3528 58%
c -  1.49 21 98 12 1435 23403 5728 64% 9 92431 3528 58%
c -  1.63 22 100 13 1602 27303 7539 66% 9 92407 3528 58%
c }  1.66 22 99 13 1634 27879 8093 66% 9 92404 3528 58%
c [  1.66 22 132 13 1634 27879 8093 72% 12 92404 3528 58%
c W  1.69 22 132 13 1634 28016 8224 72% 13 92404 3528 58%
c s  1.72 22 129 13 1634 28501 8696 72% 13 91360 3528 58%
c ^  1.73 22 129 13 1634 28501 8696 72% 13 91360 3528 58%
c 3  1.79 21 127 13 1635 29403 9643 72% 14 91354 3528 58%
c caught signal 2 (SIGINT)
c
c ---- [ profiling ] ---------------------------------------------------------
c
c           1.17   64.55 %  search
c           0.75   41.46 %  focused
c           0.59   32.75 %  simplify
c           0.42   23.09 %  stable
c           0.39   21.34 %  probe
c           0.17    9.38 %  failed
c           0.14    7.97 %  eliminate
c           0.13    6.99 %  vivify
c           0.05    2.91 %  walking
c           0.04    2.33 %  transitive
c           0.04    2.27 %  substitute
c           0.02    1.28 %  reduce
c           0.01    0.73 %  parse
c           0.01    0.53 %  autarky
c           0.01    0.36 %  ternary
c =============================================
c           1.81  100.00 %  total
c
c ---- [ statistics ] --------------------------------------------------------
c
c conflicts:                            29403            16211.52 per second
c decisions:                           292135                9.94 per conflict
c propagations:                      19746805         10887521    per second
c reductions:                              13             2262    interval
c rephased:                                 7             4200    interval
c restarts:                              1635               17.98 interval
c MAB stats : 4 4 
c
c ---- [ resources ] ---------------------------------------------------------
c
c maximum-resident-set-size:         24817664 bytes         24 MB
c process-time:                             1s               1.81 seconds
c raising signal 2 (SIGINT)
